33D32945 STP File, STP Format Version 1.0

SECTION Comments
Name "edge_n11_d4_s21"
Problem "Euclidean Steiner Tree Problem"
Remark "Generated with STPGenerator. 4 dimensions."
END

SECTION Graph
Nodes 11
END

SECTION Coordinates
DDDD 0 0.5058995711 0.5058995711 0.5058995711 0.5058995711
DDDD 1 0.1543681692 0.1543681692 0.1543681692 0.1543681692
DDDD 2 0.3336426291 0.3336426291 0.3336426291 0.3336426291
DDDD 3 0.6982897980 0.6982897980 0.6982897980 0.6982897980
DDDD 4 0.0904165954 0.0904165954 0.0904165954 0.0904165954
DDDD 5 0.6112220658 0.6112220658 0.6112220658 0.6112220658
DDDD 6 0.0528075560 0.0528075560 0.0528075560 0.0528075560
DDDD 7 0.6665685525 0.6665685525 0.6665685525 0.6665685525
DDDD 8 0.8844101391 0.8844101391 0.8844101391 0.8844101391
DDDD 9 0.2439990897 0.2439990897 0.2439990897 0.2439990897
DDDD 10 0.1642170884 0.1642170884 0.1642170884 0.1642170884
END
